10 10 3

0 220 261 254 305 131 71 141 194 194 
311 0 123 91 317 379 299 428 411 208 
72 476 0 161 474 437 392 337 458 69 
156 69 284 0 465 446 252 218 251 333 
446 98 233 139 0 359 62 180 382 391 
429 309 302 137 87 0 277 455 60 213 
103 347 377 122 210 397 0 112 174 342 
314 98 299 354 495 347 86 0 133 205 
99 264 86 440 399 102 241 242 0 346 
224 197 357 144 457 410 471 285 119 0 

204.25 0 8
204.25 1 7
204.25 2 3
204.25 3 4
204.25 4 1
204.25 5 6
204.25 6 4
204.25 7 0
204.25 8 4
204.25 9 3

